(set-info :smt-lib-version 2.6)
(set-logic UFLIA)
(set-info :source |
Generated by: Geoff Sutcliffe
Generated on: 2026-03-11
Generator: TPTPWorld
Application: Benchmarking automated theorem provers
Time limit: 120.0

These benchmarks are translations from the TPTP Library (Thousands of
Problems for Theorem Provers), see http://www.cs.miami.edu/~tptp/

The TPTP is maintained by Geoff Sutcliffe, and he contributed this
selection of benchmarks to SMT-LIB.  They were exported from the
v9.2.1 realease of TPTP.
|)
(set-info :category "industrial")
(set-info :status "unknown")
; SZS status Success
(declare-sort $$unsorted 0)

(declare-sort tptp.array 0)
(declare-fun tptp.read (tptp.array Int) Int)
(declare-fun tptp.write (tptp.array Int Int) tptp.array)
(assert (forall ((U tptp.array) (V Int) (W Int)) (= (tptp.read (tptp.write U V W) V) W)))
(assert (forall ((X tptp.array) (Y Int) (Z Int) (X1 Int)) (or (= Y Z) (= (tptp.read (tptp.write X Y X1) Z) (tptp.read X Z)))))
(assert (not (forall ((U tptp.array) (V Int) (W Int)) (=> (forall ((X Int)) (=> (and (<= V X) (<= X W)) (> (tptp.read U X) 0))) (forall ((Y Int)) (=> (and (<= (+ V 3) Y) (<= Y W)) (> (tptp.read U Y) 0)))))))
(check-sat)
(exit)
